nN = 7;
nR = 15;
nH = 1;

a = [[13, 11, 11, 25, 8, 16, 13, 20, 19, 15, 10, 6, 17, 14, 14], [17, 23, 10, 13, 10, 6, 12, 12, 12, 18, 18, 23, 20, 14, 17], [8, 6, 17, 23, 11, 8, 9, 5, 13, 13, 14, 10, 23, 15, 12], [19, 25, 24, 21, 23, 24, 24, 25, 12, 11, 19, 17, 13, 24, 19], [15, 5, 21, 7, 15, 25, 8, 7, 8, 6, 11, 13, 9, 17, 25], [20, 6, 16, 15, 6, 19, 11, 7, 18, 6, 9, 10, 23, 6, 23], [14, 8, 8, 17, 21, 21, 20, 25, 23, 6, 21, 23, 23, 21, 8]];
c = [[[0, 0, 0, 0, 0, 0, 0, 0, 0, 0, 0, 0, 0, 0, 0], [31, 44, 35, 37, 38, 47, 32, 32, 30, 36, 31, 47, 46, 30, 41], [46, 37, 44, 39, 43, 49, 46, 50, 45, 31, 48, 41, 47, 38, 35], [40, 31, 45, 34, 42, 46, 39, 33, 49, 46, 39, 44, 37, 32, 34], [33, 46, 34, 43, 50, 35, 37, 44, 31, 35, 32, 38, 30, 42, 46], [32, 48, 35, 50, 39, 37, 41, 36, 39, 33, 32, 39, 35, 38, 30], [49, 48, 35, 46, 41, 38, 49, 47, 47, 40, 39, 50, 30, 31, 43]], [[0, 0, 0, 0, 0, 0, 0, 0, 0, 0, 0, 0, 0, 0, 0], [0, 0, 0, 0, 0, 0, 0, 0, 0, 0, 0, 0, 0, 0, 0], [32, 34, 43, 39, 49, 30, 37, 31, 31, 45, 50, 48, 43, 37, 31], [45, 40, 36, 50, 50, 33, 36, 31, 36, 36, 46, 50, 34, 33, 33], [41, 31, 43, 45, 45, 39, 39, 38, 44, 50, 45, 33, 46, 47, 47], [36, 35, 38, 47, 32, 33, 42, 47, 40, 42, 31, 47, 44, 49, 43], [32, 39, 32, 38, 36, 48, 46, 49, 31, 31, 36, 36, 50, 45, 37]], [[0, 0, 0, 0, 0, 0, 0, 0, 0, 0, 0, 0, 0, 0, 0], [0, 0, 0, 0, 0, 0, 0, 0, 0, 0, 0, 0, 0, 0, 0], [0, 0, 0, 0, 0, 0, 0, 0, 0, 0, 0, 0, 0, 0, 0], [37, 30, 45, 50, 50, 49, 35, 30, 38, 30, 40, 33, 36, 40, 41], [43, 46, 37, 33, 47, 34, 41, 36, 31, 32, 46, 38, 50, 41, 39], [40, 37, 40, 32, 50, 30, 40, 33, 50, 47, 50, 40, 30, 36, 30], [39, 31, 49, 38, 33, 44, 48, 41, 36, 50, 36, 40, 35, 40, 39]], [[0, 0, 0, 0, 0, 0, 0, 0, 0, 0, 0, 0, 0, 0, 0], [0, 0, 0, 0, 0, 0, 0, 0, 0, 0, 0, 0, 0, 0, 0], [0, 0, 0, 0, 0, 0, 0, 0, 0, 0, 0, 0, 0, 0, 0], [0, 0, 0, 0, 0, 0, 0, 0, 0, 0, 0, 0, 0, 0, 0], [43, 40, 41, 31, 42, 39, 35, 38, 33, 49, 40, 39, 33, 37, 34], [33, 50, 44, 35, 47, 48, 44, 31, 33, 34, 47, 39, 34, 34, 33], [36, 40, 39, 39, 39, 32, 32, 50, 35, 38, 38, 44, 40, 48, 36]], [[0, 0, 0, 0, 0, 0, 0, 0, 0, 0, 0, 0, 0, 0, 0], [0, 0, 0, 0, 0, 0, 0, 0, 0, 0, 0, 0, 0, 0, 0], [0, 0, 0, 0, 0, 0, 0, 0, 0, 0, 0, 0, 0, 0, 0], [0, 0, 0, 0, 0, 0, 0, 0, 0, 0, 0, 0, 0, 0, 0], [0, 0, 0, 0, 0, 0, 0, 0, 0, 0, 0, 0, 0, 0, 0], [34, 36, 46, 44, 34, 39, 45, 40, 41, 50, 32, 46, 36, 43, 30], [31, 42, 38, 30, 44, 41, 49, 46, 44, 49, 45, 40, 33, 31, 49]], [[0, 0, 0, 0, 0, 0, 0, 0, 0, 0, 0, 0, 0, 0, 0], [0, 0, 0, 0, 0, 0, 0, 0, 0, 0, 0, 0, 0, 0, 0], [0, 0, 0, 0, 0, 0, 0, 0, 0, 0, 0, 0, 0, 0, 0], [0, 0, 0, 0, 0, 0, 0, 0, 0, 0, 0, 0, 0, 0, 0], [0, 0, 0, 0, 0, 0, 0, 0, 0, 0, 0, 0, 0, 0, 0], [0, 0, 0, 0, 0, 0, 0, 0, 0, 0, 0, 0, 0, 0, 0], [45, 41, 45, 50, 43, 44, 33, 42, 47, 41, 43, 37, 31, 41, 49]], [[0, 0, 0, 0, 0, 0, 0, 0, 0, 0, 0, 0, 0, 0, 0], [0, 0, 0, 0, 0, 0, 0, 0, 0, 0, 0, 0, 0, 0, 0], [0, 0, 0, 0, 0, 0, 0, 0, 0, 0, 0, 0, 0, 0, 0], [0, 0, 0, 0, 0, 0, 0, 0, 0, 0, 0, 0, 0, 0, 0], [0, 0, 0, 0, 0, 0, 0, 0, 0, 0, 0, 0, 0, 0, 0], [0, 0, 0, 0, 0, 0, 0, 0, 0, 0, 0, 0, 0, 0, 0], [0, 0, 0, 0, 0, 0, 0, 0, 0, 0, 0, 0, 0, 0, 0]]];
Q = [[24], [29], [30], [28], [22], [28], [24]];

q = [[[19], [17], [14], [24], [18], [6], [13], [9], [6], [19], [14], [11], [10], [13], [10]], [[24], [20], [19], [20], [5], [20], [21], [7], [19], [18], [5], [20], [5], [22], [23]], [[25], [15], [10], [19], [25], [22], [25], [5], [15], [15], [10], [23], [23], [16], [11]], [[22], [7], [22], [7], [18], [5], [22], [22], [13], [11], [11], [12], [23], [24], [25]], [[14], [5], [16], [8], [8], [11], [18], [11], [11], [7], [21], [14], [7], [22], [18]], [[13], [21], [13], [5], [8], [20], [15], [15], [25], [16], [18], [16], [21], [24], [15]], [[12], [17], [7], [6], [12], [15], [6], [18], [16], [24], [22], [9], [10], [14], [22]]];
p = [0.72, 0.42, 0.01, 0.56, 0.55, 0.01, 0.59, 0.52, 0.68, 0.93, 0.69, 0.74, 0.82, 0.69, 0.95];
